(declare-fun temp70_1 () (_ BitVec 64))
(declare-fun var89147 () (_ BitVec 64))
(declare-fun k!0 () Bool)
(declare-fun ARGNAME_source_NAMEEND_LEN () (_ BitVec 64))
(declare-fun ARGNAME_destination_NAMEEND_LEN () (_ BitVec 64))
(declare-fun temp70_3 () (_ BitVec 64))
(declare-fun temp70_2 () (_ BitVec 64))
(declare-fun temp70_4 () (_ BitVec 64))
(declare-fun var201290 () (_ BitVec 64))
(declare-fun var201292 () (_ BitVec 64))
(declare-fun temp70_5 () (_ BitVec 64))
(declare-fun var461075 () (_ BitVec 64))
(declare-fun temp70_7 () (_ BitVec 64))
(declare-fun temp70_6 () (_ BitVec 64))
(declare-fun temp70_8 () (_ BitVec 64))
(declare-fun var856650 () (_ BitVec 64))
(declare-fun var856652 () (_ BitVec 64))
(declare-fun temp70_9 () (_ BitVec 64))
(declare-fun var1116435 () (_ BitVec 64))
(declare-fun temp70_11 () (_ BitVec 64))
(declare-fun temp70_10 () (_ BitVec 64))
(declare-fun var1577925 () (_ BitVec 64))
(declare-fun temp70_12 () (_ BitVec 64))
(declare-fun temp70_13 () (_ BitVec 64))
(declare-fun var1643466 () (_ BitVec 64))
(declare-fun temp70_15 () (_ BitVec 64))
(declare-fun temp70_14 () (_ BitVec 64))
(declare-fun var2298821 () (_ BitVec 64))
(declare-fun temp70_16 () (_ BitVec 64))
(declare-fun temp70_17 () (_ BitVec 64))
(declare-fun var2364362 () (_ BitVec 64))
(declare-fun temp70_18 () (_ BitVec 64))
(declare-fun var3019338 () (_ BitVec 64))
(declare-fun var3019340 () (_ BitVec 64))
(declare-fun temp70_19 () (_ BitVec 64))
(declare-fun var4461130 () (_ BitVec 64))
(declare-fun var4461132 () (_ BitVec 64))
(declare-fun temp70_20 () (_ BitVec 64))
(declare-fun ARGNAME_input_NAMEEND_DIM () (_ BitVec 64))
(declare-fun var89269 () (_ BitVec 64))
(declare-fun temp70_21 () (_ BitVec 64))
(declare-fun temp70_23 () (_ BitVec 64))
(declare-fun temp70_22 () (_ BitVec 64))
(declare-fun temp70_24 () (_ BitVec 64))
(declare-fun var5837386 () (_ BitVec 64))
(declare-fun var5837388 () (_ BitVec 64))
(declare-fun temp70_25 () (_ BitVec 64))
(declare-fun var6097171 () (_ BitVec 64))
(declare-fun temp70_27 () (_ BitVec 64))
(declare-fun temp70_26 () (_ BitVec 64))
(declare-fun temp70_28 () (_ BitVec 64))
(declare-fun var6492746 () (_ BitVec 64))
(declare-fun var6492748 () (_ BitVec 64))
(declare-fun temp70_30 () (_ BitVec 64))
(declare-fun temp70_29 () (_ BitVec 64))
(declare-fun temp70_31 () (_ BitVec 64))
(declare-fun var7672394 () (_ BitVec 64))
(declare-fun var7672396 () (_ BitVec 64))
(declare-fun temp70_33 () (_ BitVec 64))
(declare-fun temp70_32 () (_ BitVec 64))
(declare-fun var9114565 () (_ BitVec 64))
(declare-fun temp70_34 () (_ BitVec 64))
(declare-fun temp70_35 () (_ BitVec 64))
(declare-fun var9180106 () (_ BitVec 64))
(declare-fun temp70_37 () (_ BitVec 64))
(declare-fun temp70_36 () (_ BitVec 64))
(declare-fun temp70_39 () (_ BitVec 64))
(declare-fun temp70_38 () (_ BitVec 64))
(declare-fun var89398 () (_ BitVec 64))
(declare-fun var10095481 () (_ BitVec 64))
(declare-fun temp70_41 () (_ BitVec 64))
(declare-fun temp70_40 () (_ BitVec 64))
(declare-fun var10161473 () (_ BitVec 64))
(declare-fun var10161474 () (_ BitVec 64))
(declare-fun temp70_42 () (_ BitVec 64))
(declare-fun temp70_43 () (_ BitVec 64))
(declare-fun var10227015 () (_ BitVec 64))
(declare-fun var10292562 () (_ BitVec 64))
(declare-fun var10095501 () (_ BitVec 64))
(assert (= var89147
   (ite (= ARGNAME_source_NAMEEND_LEN ARGNAME_destination_NAMEEND_LEN)
        #x0000000000000001
        #x0000000000000000)))
(assert (= temp70_1 #x0000000000000001))
(assert (= var89147 temp70_1))
(assert (= temp70_3 #x0000000000000000))
(assert (= temp70_2 temp70_3))
(assert (= temp70_4 #x0000000000000005))
(assert (= var201290 temp70_4))
(assert (= var201292 var201290))
(assert (= temp70_5 #x0000000000000000))
(assert (= var461075 temp70_5))
(assert (= temp70_7 #x0000000000000000))
(assert (= temp70_6 temp70_7))
(assert (= temp70_8 #x0000000000000005))
(assert (= var856650 temp70_8))
(assert (= var856652 var856650))
(assert (= temp70_9 #x0000000000000000))
(assert (= var1116435 temp70_9))
(assert (= temp70_11 #x0000000000000000))
(assert (= temp70_10 temp70_11))
(assert (= var1577925
   (ite (bvslt temp70_10 ARGNAME_source_NAMEEND_LEN)
        #x0000000000000001
        #x0000000000000000)))
(assert (= temp70_12
   (ite (= var1577925 #x0000000000000001) ARGNAME_source_NAMEEND_LEN temp70_10)))
(assert (= temp70_13 #x0000000000000000))
(assert (= var1643466 temp70_13))
(assert (= temp70_15 #x0000000000000000))
(assert (= temp70_14 temp70_15))
(assert (= var2298821
   (ite (bvslt temp70_14 ARGNAME_destination_NAMEEND_LEN)
        #x0000000000000001
        #x0000000000000000)))
(assert (= temp70_16
   (ite (= var2298821 #x0000000000000001)
        ARGNAME_destination_NAMEEND_LEN
        temp70_14)))
(assert (= temp70_17 #x0000000000000000))
(assert (= var2364362 temp70_17))
(assert (= temp70_18 #x0000000000000005))
(assert (= var3019338 temp70_18))
(assert (= var3019340 var3019338))
(assert (= temp70_19 #x0000000000000005))
(assert (= var4461130 temp70_19))
(assert (= var4461132 var4461130))
(assert (= temp70_20 #x0000000000000000))
(assert (= var89269
   (ite (= ARGNAME_input_NAMEEND_DIM temp70_20)
        #x0000000000000001
        #x0000000000000000)))
(assert (= temp70_21 #x0000000000000000))
(assert (= var89269 temp70_21))
(assert (= temp70_23 #x0000000000000000))
(assert (= temp70_22 temp70_23))
(assert (= temp70_24 #x0000000000000005))
(assert (= var5837386 temp70_24))
(assert (= var5837388 var5837386))
(assert (= temp70_25 #x0000000000000000))
(assert (= var6097171 temp70_25))
(assert (= temp70_27 #x0000000000000000))
(assert (= temp70_26 temp70_27))
(assert (= temp70_28 #x0000000000000005))
(assert (= var6492746 temp70_28))
(assert (= var6492748 var6492746))
(assert (= temp70_30 #x0000000000000000))
(assert (= temp70_29 temp70_30))
(assert (= temp70_31 #x0000000000000005))
(assert (= var7672394 temp70_31))
(assert (= var7672396 var7672394))
(assert (= temp70_33 #x0000000000000000))
(assert (= temp70_32 temp70_33))
(assert (= var9114565
   (ite (bvslt temp70_32 ARGNAME_source_NAMEEND_LEN)
        #x0000000000000001
        #x0000000000000000)))
(assert (= temp70_34
   (ite (= var9114565 #x0000000000000001) ARGNAME_source_NAMEEND_LEN temp70_32)))
(assert (= temp70_35 #x0000000000000000))
(assert (= var9180106 temp70_35))
(assert (= temp70_37 #xffffffffffffffff))
(assert (= temp70_36 temp70_37))
(assert (= temp70_39 #xffffffffffffffff))
(assert (= temp70_38 temp70_39))
(assert (= var89398 (bvsub ARGNAME_input_NAMEEND_DIM ARGNAME_source_NAMEEND_LEN)))
(assert (= var10095481 var89398))
(assert (= temp70_41 #x0000000000000000))
(assert (= temp70_40 temp70_41))
(assert (= var10161473 var10095481))
(assert (= var10161474
   (ite (bvslt temp70_40 var10161473) #x0000000000000001 #x0000000000000000)))
(assert (= temp70_42 (ite (= var10161474 #x0000000000000001) var10095481 temp70_40)))
(assert (= temp70_43 #x0000000000000000))
(assert (= var10227015 temp70_43))
(assert (= var10292562 var10227015))
(assert (= var10095501 var10292562))
(model-add temp70_1 () (_ BitVec 64) #x0000000000000001)
(model-add var89147 () (_ BitVec 64) #x0000000000000001)
(model-del k!0)
(model-add ARGNAME_source_NAMEEND_LEN
           ()
           (_ BitVec 64)
           (ite k!0
                ARGNAME_destination_NAMEEND_LEN
                (bvnot ARGNAME_destination_NAMEEND_LEN)))



